#P HF/6-31G GFInput iop(6/7=3) Pop=CHELPG

Testing

0 1
###(G)###

###(C)###

###(P)###

